p cnf 120 2698
1 2 3 0
4 5 6 0
7 8 9 0
10 11 12 0
13 14 15 0
16 17 18 0
19 20 21 0
22 23 24 0
25 26 27 0
28 29 30 0
31 32 33 0
34 35 36 0
37 38 39 0
40 41 42 0
43 44 45 0
46 47 48 0
49 50 51 0
52 53 54 0
55 56 57 0
58 59 60 0
61 62 63 0
64 65 66 0
67 68 69 0
70 71 72 0
73 74 75 0
76 77 78 0
79 80 81 0
82 83 84 0
85 86 87 0
88 89 90 0
91 92 93 0
94 95 96 0
97 98 99 0
100 101 102 0
103 104 105 0
106 107 108 0
109 110 111 0
112 113 114 0
115 116 117 0
118 119 120 0
-1 -2 0
-1 -3 0
-2 -3 0
-4 -5 0
-4 -6 0
-5 -6 0
-7 -8 0
-7 -9 0
-8 -9 0
-10 -11 0
-10 -12 0
-11 -12 0
-13 -14 0
-13 -15 0
-14 -15 0
-16 -17 0
-16 -18 0
-17 -18 0
-19 -20 0
-19 -21 0
-20 -21 0
-22 -23 0
-22 -24 0
-23 -24 0
-25 -26 0
-25 -27 0
-26 -27 0
-28 -29 0
-28 -30 0
-29 -30 0
-31 -32 0
-31 -33 0
-32 -33 0
-34 -35 0
-34 -36 0
-35 -36 0
-37 -38 0
-37 -39 0
-38 -39 0
-40 -41 0
-40 -42 0
-41 -42 0
-43 -44 0
-43 -45 0
-44 -45 0
-46 -47 0
-46 -48 0
-47 -48 0
-49 -50 0
-49 -51 0
-50 -51 0
-52 -53 0
-52 -54 0
-53 -54 0
-55 -56 0
-55 -57 0
-56 -57 0
-58 -59 0
-58 -60 0
-59 -60 0
-61 -62 0
-61 -63 0
-62 -63 0
-64 -65 0
-64 -66 0
-65 -66 0
-67 -68 0
-67 -69 0
-68 -69 0
-70 -71 0
-70 -72 0
-71 -72 0
-73 -74 0
-73 -75 0
-74 -75 0
-76 -77 0
-76 -78 0
-77 -78 0
-79 -80 0
-79 -81 0
-80 -81 0
-82 -83 0
-82 -84 0
-83 -84 0
-85 -86 0
-85 -87 0
-86 -87 0
-88 -89 0
-88 -90 0
-89 -90 0
-91 -92 0
-91 -93 0
-92 -93 0
-94 -95 0
-94 -96 0
-95 -96 0
-97 -98 0
-97 -99 0
-98 -99 0
-100 -101 0
-100 -102 0
-101 -102 0
-103 -104 0
-103 -105 0
-104 -105 0
-106 -107 0
-106 -108 0
-107 -108 0
-109 -110 0
-109 -111 0
-110 -111 0
-112 -113 0
-112 -114 0
-113 -114 0
-115 -116 0
-115 -117 0
-116 -117 0
-118 -119 0
-118 -120 0
-119 -120 0
-1 -10 0
-1 -13 0
-1 -19 0
-1 -22 0
-1 -28 0
-1 -31 0
-1 -40 0
-1 -43 0
-1 -52 0
-1 -55 0
-1 -64 0
-1 -67 0
-1 -70 0
-1 -73 0
-1 -85 0
-1 -88 0
-1 -94 0
-1 -103 0
-1 -106 0
-1 -115 0
-1 -118 0
-4 -13 0
-4 -16 0
-4 -22 0
-4 -28 0
-4 -31 0
-4 -34 0
-4 -40 0
-4 -46 0
-4 -49 0
-4 -58 0
-4 -64 0
-4 -70 0
-4 -79 0
-4 -82 0
-4 -85 0
-4 -91 0
-4 -94 0
-4 -100 0
-4 -103 0
-4 -106 0
-4 -109 0
-4 -115 0
-7 -10 0
-7 -13 0
-7 -22 0
-7 -28 0
-7 -31 0
-7 -37 0
-7 -40 0
-7 -43 0
-7 -49 0
-7 -52 0
-7 -61 0
-7 -67 0
-7 -70 0
-7 -73 0
-7 -76 0
-7 -79 0
-7 -85 0
-7 -88 0
-7 -94 0
-7 -97 0
-7 -100 0
-7 -103 0
-7 -115 0
-10 -1 0
-10 -7 0
-10 -13 0
-10 -19 0
-10 -22 0
-10 -31 0
-10 -34 0
-10 -37 0
-10 -40 0
-10 -43 0
-10 -46 0
-10 -49 0
-10 -55 0
-10 -58 0
-10 -67 0
-10 -70 0
-10 -76 0
-10 -79 0
-10 -82 0
-10 -85 0
-10 -91 0
-10 -106 0
-10 -109 0
-13 -1 0
-13 -4 0
-13 -7 0
-13 -10 0
-13 -19 0
-13 -22 0
-13 -28 0
-13 -34 0
-13 -37 0
-13 -40 0
-13 -43 0
-13 -52 0
-13 -55 0
-13 -58 0
-13 -67 0
-13 -70 0
-13 -82 0
-13 -88 0
-13 -91 0
-13 -97 0
-13 -103 0
-13 -118 0
-16 -4 0
-16 -22 0
-16 -25 0
-16 -28 0
-16 -31 0
-16 -37 0
-16 -40 0
-16 -46 0
-16 -52 0
-16 -58 0
-16 -64 0
-16 -67 0
-16 -85 0
-16 -88 0
-16 -103 0
-16 -106 0
-16 -115 0
-19 -1 0
-19 -10 0
-19 -13 0
-19 -25 0
-19 -31 0
-19 -34 0
-19 -40 0
-19 -46 0
-19 -61 0
-19 -64 0
-19 -67 0
-19 -79 0
-19 -82 0
-19 -85 0
-19 -94 0
-19 -97 0
-19 -103 0
-19 -109 0
-19 -112 0
-19 -115 0
-22 -1 0
-22 -4 0
-22 -7 0
-22 -10 0
-22 -13 0
-22 -16 0
-22 -28 0
-22 -31 0
-22 -37 0
-22 -43 0
-22 -46 0
-22 -49 0
-22 -55 0
-22 -61 0
-22 -67 0
-22 -73 0
-22 -79 0
-22 -85 0
-22 -88 0
-22 -91 0
-22 -94 0
-22 -97 0
-22 -103 0
-22 -106 0
-22 -118 0
-25 -16 0
-25 -19 0
-25 -28 0
-25 -31 0
-25 -43 0
-25 -46 0
-25 -52 0
-25 -55 0
-25 -58 0
-25 -64 0
-25 -67 0
-25 -73 0
-25 -79 0
-25 -85 0
-25 -94 0
-25 -103 0
-25 -109 0
-25 -112 0
-28 -1 0
-28 -4 0
-28 -7 0
-28 -13 0
-28 -16 0
-28 -22 0
-28 -25 0
-28 -37 0
-28 -40 0
-28 -43 0
-28 -46 0
-28 -49 0
-28 -52 0
-28 -55 0
-28 -73 0
-28 -79 0
-28 -82 0
-28 -88 0
-28 -91 0
-28 -100 0
-28 -103 0
-28 -106 0
-28 -112 0
-31 -1 0
-31 -4 0
-31 -7 0
-31 -10 0
-31 -16 0
-31 -19 0
-31 -22 0
-31 -25 0
-31 -37 0
-31 -43 0
-31 -52 0
-31 -55 0
-31 -58 0
-31 -61 0
-31 -67 0
-31 -76 0
-31 -97 0
-31 -100 0
-31 -103 0
-31 -106 0
-31 -109 0
-31 -112 0
-31 -118 0
-34 -4 0
-34 -10 0
-34 -13 0
-34 -19 0
-34 -37 0
-34 -40 0
-34 -46 0
-34 -49 0
-34 -52 0
-34 -58 0
-34 -61 0
-34 -67 0
-34 -73 0
-34 -76 0
-34 -82 0
-34 -88 0
-34 -94 0
-34 -97 0
-34 -100 0
-34 -103 0
-34 -112 0
-37 -7 0
-37 -10 0
-37 -13 0
-37 -16 0
-37 -22 0
-37 -28 0
-37 -31 0
-37 -34 0
-37 -40 0
-37 -43 0
-37 -46 0
-37 -49 0
-37 -55 0
-37 -58 0
-37 -61 0
-37 -64 0
-37 -67 0
-37 -70 0
-37 -73 0
-37 -79 0
-37 -85 0
-37 -97 0
-37 -100 0
-37 -103 0
-37 -109 0
-37 -112 0
-37 -118 0
-40 -1 0
-40 -4 0
-40 -7 0
-40 -10 0
-40 -13 0
-40 -16 0
-40 -19 0
-40 -28 0
-40 -34 0
-40 -37 0
-40 -46 0
-40 -49 0
-40 -64 0
-40 -67 0
-40 -70 0
-40 -73 0
-40 -85 0
-40 -88 0
-40 -91 0
-40 -94 0
-40 -100 0
-40 -106 0
-40 -112 0
-40 -115 0
-43 -1 0
-43 -7 0
-43 -10 0
-43 -13 0
-43 -22 0
-43 -25 0
-43 -28 0
-43 -31 0
-43 -37 0
-43 -49 0
-43 -52 0
-43 -55 0
-43 -58 0
-43 -67 0
-43 -70 0
-43 -76 0
-43 -79 0
-43 -82 0
-43 -85 0
-43 -88 0
-43 -91 0
-43 -109 0
-46 -4 0
-46 -10 0
-46 -16 0
-46 -19 0
-46 -22 0
-46 -25 0
-46 -28 0
-46 -34 0
-46 -37 0
-46 -40 0
-46 -49 0
-46 -52 0
-46 -55 0
-46 -61 0
-46 -85 0
-46 -94 0
-46 -100 0
-46 -103 0
-46 -106 0
-46 -112 0
-46 -115 0
-46 -118 0
-49 -4 0
-49 -7 0
-49 -10 0
-49 -22 0
-49 -28 0
-49 -34 0
-49 -37 0
-49 -40 0
-49 -43 0
-49 -46 0
-49 -55 0
-49 -58 0
-49 -70 0
-49 -76 0
-49 -79 0
-49 -82 0
-49 -88 0
-49 -100 0
-49 -103 0
-49 -106 0
-49 -109 0
-49 -112 0
-49 -115 0
-49 -118 0
-52 -1 0
-52 -7 0
-52 -13 0
-52 -16 0
-52 -25 0
-52 -28 0
-52 -31 0
-52 -34 0
-52 -43 0
-52 -46 0
-52 -55 0
-52 -67 0
-52 -70 0
-52 -73 0
-52 -76 0
-52 -82 0
-52 -85 0
-52 -94 0
-52 -109 0
-52 -112 0
-52 -115 0
-52 -118 0
-55 -1 0
-55 -10 0
-55 -13 0
-55 -22 0
-55 -25 0
-55 -28 0
-55 -31 0
-55 -37 0
-55 -43 0
-55 -46 0
-55 -49 0
-55 -52 0
-55 -61 0
-55 -64 0
-55 -67 0
-55 -70 0
-55 -82 0
-55 -88 0
-55 -91 0
-55 -100 0
-55 -103 0
-55 -106 0
-55 -109 0
-55 -112 0
-58 -4 0
-58 -10 0
-58 -13 0
-58 -16 0
-58 -25 0
-58 -31 0
-58 -34 0
-58 -37 0
-58 -43 0
-58 -49 0
-58 -70 0
-58 -76 0
-58 -82 0
-58 -85 0
-58 -88 0
-58 -94 0
-58 -97 0
-58 -106 0
-58 -112 0
-58 -118 0
-61 -7 0
-61 -19 0
-61 -22 0
-61 -31 0
-61 -34 0
-61 -37 0
-61 -46 0
-61 -55 0
-61 -70 0
-61 -73 0
-61 -79 0
-61 -85 0
-61 -91 0
-61 -94 0
-61 -97 0
-61 -100 0
-61 -103 0
-61 -106 0
-61 -109 0
-61 -112 0
-61 -115 0
-61 -118 0
-64 -1 0
-64 -4 0
-64 -16 0
-64 -19 0
-64 -25 0
-64 -37 0
-64 -40 0
-64 -55 0
-64 -67 0
-64 -70 0
-64 -76 0
-64 -88 0
-64 -94 0
-64 -100 0
-64 -106 0
-64 -112 0
-64 -115 0
-64 -118 0
-67 -1 0
-67 -7 0
-67 -10 0
-67 -13 0
-67 -16 0
-67 -19 0
-67 -22 0
-67 -25 0
-67 -31 0
-67 -34 0
-67 -37 0
-67 -40 0
-67 -43 0
-67 -52 0
-67 -55 0
-67 -64 0
-67 -70 0
-67 -73 0
-67 -79 0
-67 -82 0
-67 -88 0
-67 -97 0
-67 -100 0
-67 -103 0
-67 -109 0
-67 -115 0
-70 -1 0
-70 -4 0
-70 -7 0
-70 -10 0
-70 -13 0
-70 -37 0
-70 -40 0
-70 -43 0
-70 -49 0
-70 -52 0
-70 -55 0
-70 -58 0
-70 -61 0
-70 -64 0
-70 -67 0
-70 -73 0
-70 -79 0
-70 -94 0
-70 -100 0
-70 -109 0
-70 -115 0
-73 -1 0
-73 -7 0
-73 -22 0
-73 -25 0
-73 -28 0
-73 -34 0
-73 -37 0
-73 -40 0
-73 -52 0
-73 -61 0
-73 -67 0
-73 -70 0
-73 -76 0
-73 -79 0
-73 -88 0
-73 -91 0
-73 -94 0
-73 -100 0
-73 -115 0
-73 -118 0
-76 -7 0
-76 -10 0
-76 -31 0
-76 -34 0
-76 -43 0
-76 -49 0
-76 -52 0
-76 -58 0
-76 -64 0
-76 -73 0
-76 -85 0
-76 -88 0
-76 -94 0
-76 -97 0
-76 -100 0
-76 -103 0
-76 -112 0
-76 -118 0
-79 -4 0
-79 -7 0
-79 -10 0
-79 -19 0
-79 -22 0
-79 -25 0
-79 -28 0
-79 -37 0
-79 -43 0
-79 -49 0
-79 -61 0
-79 -67 0
-79 -70 0
-79 -73 0
-79 -85 0
-79 -88 0
-79 -97 0
-79 -100 0
-79 -109 0
-79 -112 0
-82 -4 0
-82 -10 0
-82 -13 0
-82 -19 0
-82 -28 0
-82 -34 0
-82 -43 0
-82 -49 0
-82 -52 0
-82 -55 0
-82 -58 0
-82 -67 0
-82 -85 0
-82 -88 0
-82 -91 0
-82 -94 0
-82 -97 0
-82 -100 0
-82 -103 0
-82 -109 0
-82 -112 0
-82 -118 0
-85 -1 0
-85 -4 0
-85 -7 0
-85 -10 0
-85 -16 0
-85 -19 0
-85 -22 0
-85 -25 0
-85 -37 0
-85 -40 0
-85 -43 0
-85 -46 0
-85 -52 0
-85 -58 0
-85 -61 0
-85 -76 0
-85 -79 0
-85 -82 0
-88 -1 0
-88 -7 0
-88 -13 0
-88 -16 0
-88 -22 0
-88 -28 0
-88 -34 0
-88 -40 0
-88 -43 0
-88 -49 0
-88 -55 0
-88 -58 0
-88 -64 0
-88 -67 0
-88 -73 0
-88 -76 0
-88 -79 0
-88 -82 0
-88 -94 0
-88 -97 0
-88 -106 0
-88 -109 0
-88 -112 0
-88 -115 0
-91 -4 0
-91 -10 0
-91 -13 0
-91 -22 0
-91 -28 0
-91 -40 0
-91 -43 0
-91 -55 0
-91 -61 0
-91 -73 0
-91 -82 0
-91 -97 0
-91 -106 0
-91 -109 0
-91 -115 0
-91 -118 0
-94 -1 0
-94 -4 0
-94 -7 0
-94 -19 0
-94 -22 0
-94 -25 0
-94 -34 0
-94 -40 0
-94 -46 0
-94 -52 0
-94 -58 0
-94 -61 0
-94 -64 0
-94 -70 0
-94 -73 0
-94 -76 0
-94 -82 0
-94 -88 0
-94 -97 0
-94 -115 0
-97 -7 0
-97 -13 0
-97 -19 0
-97 -22 0
-97 -31 0
-97 -34 0
-97 -37 0
-97 -58 0
-97 -61 0
-97 -67 0
-97 -76 0
-97 -79 0
-97 -82 0
-97 -88 0
-97 -91 0
-97 -94 0
-97 -100 0
-97 -103 0
-97 -109 0
-100 -4 0
-100 -7 0
-100 -28 0
-100 -31 0
-100 -34 0
-100 -37 0
-100 -40 0
-100 -46 0
-100 -49 0
-100 -55 0
-100 -61 0
-100 -64 0
-100 -67 0
-100 -70 0
-100 -73 0
-100 -76 0
-100 -79 0
-100 -82 0
-100 -97 0
-100 -103 0
-100 -109 0
-100 -115 0
-103 -1 0
-103 -4 0
-103 -7 0
-103 -13 0
-103 -16 0
-103 -19 0
-103 -22 0
-103 -25 0
-103 -28 0
-103 -31 0
-103 -34 0
-103 -37 0
-103 -46 0
-103 -49 0
-103 -55 0
-103 -61 0
-103 -67 0
-103 -76 0
-103 -82 0
-103 -97 0
-103 -100 0
-106 -1 0
-106 -4 0
-106 -10 0
-106 -16 0
-106 -22 0
-106 -28 0
-106 -31 0
-106 -40 0
-106 -46 0
-106 -49 0
-106 -55 0
-106 -58 0
-106 -61 0
-106 -64 0
-106 -88 0
-106 -91 0
-106 -112 0
-106 -115 0
-106 -118 0
-109 -4 0
-109 -10 0
-109 -19 0
-109 -25 0
-109 -31 0
-109 -37 0
-109 -43 0
-109 -49 0
-109 -52 0
-109 -55 0
-109 -61 0
-109 -67 0
-109 -70 0
-109 -79 0
-109 -82 0
-109 -88 0
-109 -91 0
-109 -97 0
-109 -100 0
-109 -112 0
-109 -118 0
-112 -19 0
-112 -25 0
-112 -28 0
-112 -31 0
-112 -34 0
-112 -37 0
-112 -40 0
-112 -46 0
-112 -49 0
-112 -52 0
-112 -55 0
-112 -58 0
-112 -61 0
-112 -64 0
-112 -76 0
-112 -79 0
-112 -82 0
-112 -88 0
-112 -106 0
-112 -109 0
-115 -1 0
-115 -4 0
-115 -7 0
-115 -16 0
-115 -19 0
-115 -40 0
-115 -46 0
-115 -49 0
-115 -52 0
-115 -61 0
-115 -64 0
-115 -67 0
-115 -70 0
-115 -73 0
-115 -88 0
-115 -91 0
-115 -94 0
-115 -100 0
-115 -106 0
-118 -1 0
-118 -13 0
-118 -22 0
-118 -31 0
-118 -37 0
-118 -46 0
-118 -49 0
-118 -52 0
-118 -58 0
-118 -61 0
-118 -64 0
-118 -73 0
-118 -76 0
-118 -82 0
-118 -91 0
-118 -106 0
-118 -109 0
-2 -11 0
-2 -14 0
-2 -20 0
-2 -23 0
-2 -29 0
-2 -32 0
-2 -41 0
-2 -44 0
-2 -53 0
-2 -56 0
-2 -65 0
-2 -68 0
-2 -71 0
-2 -74 0
-2 -86 0
-2 -89 0
-2 -95 0
-2 -104 0
-2 -107 0
-2 -116 0
-2 -119 0
-5 -14 0
-5 -17 0
-5 -23 0
-5 -29 0
-5 -32 0
-5 -35 0
-5 -41 0
-5 -47 0
-5 -50 0
-5 -59 0
-5 -65 0
-5 -71 0
-5 -80 0
-5 -83 0
-5 -86 0
-5 -92 0
-5 -95 0
-5 -101 0
-5 -104 0
-5 -107 0
-5 -110 0
-5 -116 0
-8 -11 0
-8 -14 0
-8 -23 0
-8 -29 0
-8 -32 0
-8 -38 0
-8 -41 0
-8 -44 0
-8 -50 0
-8 -53 0
-8 -62 0
-8 -68 0
-8 -71 0
-8 -74 0
-8 -77 0
-8 -80 0
-8 -86 0
-8 -89 0
-8 -95 0
-8 -98 0
-8 -101 0
-8 -104 0
-8 -116 0
-11 -2 0
-11 -8 0
-11 -14 0
-11 -20 0
-11 -23 0
-11 -32 0
-11 -35 0
-11 -38 0
-11 -41 0
-11 -44 0
-11 -47 0
-11 -50 0
-11 -56 0
-11 -59 0
-11 -68 0
-11 -71 0
-11 -77 0
-11 -80 0
-11 -83 0
-11 -86 0
-11 -92 0
-11 -107 0
-11 -110 0
-14 -2 0
-14 -5 0
-14 -8 0
-14 -11 0
-14 -20 0
-14 -23 0
-14 -29 0
-14 -35 0
-14 -38 0
-14 -41 0
-14 -44 0
-14 -53 0
-14 -56 0
-14 -59 0
-14 -68 0
-14 -71 0
-14 -83 0
-14 -89 0
-14 -92 0
-14 -98 0
-14 -104 0
-14 -119 0
-17 -5 0
-17 -23 0
-17 -26 0
-17 -29 0
-17 -32 0
-17 -38 0
-17 -41 0
-17 -47 0
-17 -53 0
-17 -59 0
-17 -65 0
-17 -68 0
-17 -86 0
-17 -89 0
-17 -104 0
-17 -107 0
-17 -116 0
-20 -2 0
-20 -11 0
-20 -14 0
-20 -26 0
-20 -32 0
-20 -35 0
-20 -41 0
-20 -47 0
-20 -62 0
-20 -65 0
-20 -68 0
-20 -80 0
-20 -83 0
-20 -86 0
-20 -95 0
-20 -98 0
-20 -104 0
-20 -110 0
-20 -113 0
-20 -116 0
-23 -2 0
-23 -5 0
-23 -8 0
-23 -11 0
-23 -14 0
-23 -17 0
-23 -29 0
-23 -32 0
-23 -38 0
-23 -44 0
-23 -47 0
-23 -50 0
-23 -56 0
-23 -62 0
-23 -68 0
-23 -74 0
-23 -80 0
-23 -86 0
-23 -89 0
-23 -92 0
-23 -95 0
-23 -98 0
-23 -104 0
-23 -107 0
-23 -119 0
-26 -17 0
-26 -20 0
-26 -29 0
-26 -32 0
-26 -44 0
-26 -47 0
-26 -53 0
-26 -56 0
-26 -59 0
-26 -65 0
-26 -68 0
-26 -74 0
-26 -80 0
-26 -86 0
-26 -95 0
-26 -104 0
-26 -110 0
-26 -113 0
-29 -2 0
-29 -5 0
-29 -8 0
-29 -14 0
-29 -17 0
-29 -23 0
-29 -26 0
-29 -38 0
-29 -41 0
-29 -44 0
-29 -47 0
-29 -50 0
-29 -53 0
-29 -56 0
-29 -74 0
-29 -80 0
-29 -83 0
-29 -89 0
-29 -92 0
-29 -101 0
-29 -104 0
-29 -107 0
-29 -113 0
-32 -2 0
-32 -5 0
-32 -8 0
-32 -11 0
-32 -17 0
-32 -20 0
-32 -23 0
-32 -26 0
-32 -38 0
-32 -44 0
-32 -53 0
-32 -56 0
-32 -59 0
-32 -62 0
-32 -68 0
-32 -77 0
-32 -98 0
-32 -101 0
-32 -104 0
-32 -107 0
-32 -110 0
-32 -113 0
-32 -119 0
-35 -5 0
-35 -11 0
-35 -14 0
-35 -20 0
-35 -38 0
-35 -41 0
-35 -47 0
-35 -50 0
-35 -53 0
-35 -59 0
-35 -62 0
-35 -68 0
-35 -74 0
-35 -77 0
-35 -83 0
-35 -89 0
-35 -95 0
-35 -98 0
-35 -101 0
-35 -104 0
-35 -113 0
-38 -8 0
-38 -11 0
-38 -14 0
-38 -17 0
-38 -23 0
-38 -29 0
-38 -32 0
-38 -35 0
-38 -41 0
-38 -44 0
-38 -47 0
-38 -50 0
-38 -56 0
-38 -59 0
-38 -62 0
-38 -65 0
-38 -68 0
-38 -71 0
-38 -74 0
-38 -80 0
-38 -86 0
-38 -98 0
-38 -101 0
-38 -104 0
-38 -110 0
-38 -113 0
-38 -119 0
-41 -2 0
-41 -5 0
-41 -8 0
-41 -11 0
-41 -14 0
-41 -17 0
-41 -20 0
-41 -29 0
-41 -35 0
-41 -38 0
-41 -47 0
-41 -50 0
-41 -65 0
-41 -68 0
-41 -71 0
-41 -74 0
-41 -86 0
-41 -89 0
-41 -92 0
-41 -95 0
-41 -101 0
-41 -107 0
-41 -113 0
-41 -116 0
-44 -2 0
-44 -8 0
-44 -11 0
-44 -14 0
-44 -23 0
-44 -26 0
-44 -29 0
-44 -32 0
-44 -38 0
-44 -50 0
-44 -53 0
-44 -56 0
-44 -59 0
-44 -68 0
-44 -71 0
-44 -77 0
-44 -80 0
-44 -83 0
-44 -86 0
-44 -89 0
-44 -92 0
-44 -110 0
-47 -5 0
-47 -11 0
-47 -17 0
-47 -20 0
-47 -23 0
-47 -26 0
-47 -29 0
-47 -35 0
-47 -38 0
-47 -41 0
-47 -50 0
-47 -53 0
-47 -56 0
-47 -62 0
-47 -86 0
-47 -95 0
-47 -101 0
-47 -104 0
-47 -107 0
-47 -113 0
-47 -116 0
-47 -119 0
-50 -5 0
-50 -8 0
-50 -11 0
-50 -23 0
-50 -29 0
-50 -35 0
-50 -38 0
-50 -41 0
-50 -44 0
-50 -47 0
-50 -56 0
-50 -59 0
-50 -71 0
-50 -77 0
-50 -80 0
-50 -83 0
-50 -89 0
-50 -101 0
-50 -104 0
-50 -107 0
-50 -110 0
-50 -113 0
-50 -116 0
-50 -119 0
-53 -2 0
-53 -8 0
-53 -14 0
-53 -17 0
-53 -26 0
-53 -29 0
-53 -32 0
-53 -35 0
-53 -44 0
-53 -47 0
-53 -56 0
-53 -68 0
-53 -71 0
-53 -74 0
-53 -77 0
-53 -83 0
-53 -86 0
-53 -95 0
-53 -110 0
-53 -113 0
-53 -116 0
-53 -119 0
-56 -2 0
-56 -11 0
-56 -14 0
-56 -23 0
-56 -26 0
-56 -29 0
-56 -32 0
-56 -38 0
-56 -44 0
-56 -47 0
-56 -50 0
-56 -53 0
-56 -62 0
-56 -65 0
-56 -68 0
-56 -71 0
-56 -83 0
-56 -89 0
-56 -92 0
-56 -101 0
-56 -104 0
-56 -107 0
-56 -110 0
-56 -113 0
-59 -5 0
-59 -11 0
-59 -14 0
-59 -17 0
-59 -26 0
-59 -32 0
-59 -35 0
-59 -38 0
-59 -44 0
-59 -50 0
-59 -71 0
-59 -77 0
-59 -83 0
-59 -86 0
-59 -89 0
-59 -95 0
-59 -98 0
-59 -107 0
-59 -113 0
-59 -119 0
-62 -8 0
-62 -20 0
-62 -23 0
-62 -32 0
-62 -35 0
-62 -38 0
-62 -47 0
-62 -56 0
-62 -71 0
-62 -74 0
-62 -80 0
-62 -86 0
-62 -92 0
-62 -95 0
-62 -98 0
-62 -101 0
-62 -104 0
-62 -107 0
-62 -110 0
-62 -113 0
-62 -116 0
-62 -119 0
-65 -2 0
-65 -5 0
-65 -17 0
-65 -20 0
-65 -26 0
-65 -38 0
-65 -41 0
-65 -56 0
-65 -68 0
-65 -71 0
-65 -77 0
-65 -89 0
-65 -95 0
-65 -101 0
-65 -107 0
-65 -113 0
-65 -116 0
-65 -119 0
-68 -2 0
-68 -8 0
-68 -11 0
-68 -14 0
-68 -17 0
-68 -20 0
-68 -23 0
-68 -26 0
-68 -32 0
-68 -35 0
-68 -38 0
-68 -41 0
-68 -44 0
-68 -53 0
-68 -56 0
-68 -65 0
-68 -71 0
-68 -74 0
-68 -80 0
-68 -83 0
-68 -89 0
-68 -98 0
-68 -101 0
-68 -104 0
-68 -110 0
-68 -116 0
-71 -2 0
-71 -5 0
-71 -8 0
-71 -11 0
-71 -14 0
-71 -38 0
-71 -41 0
-71 -44 0
-71 -50 0
-71 -53 0
-71 -56 0
-71 -59 0
-71 -62 0
-71 -65 0
-71 -68 0
-71 -74 0
-71 -80 0
-71 -95 0
-71 -101 0
-71 -110 0
-71 -116 0
-74 -2 0
-74 -8 0
-74 -23 0
-74 -26 0
-74 -29 0
-74 -35 0
-74 -38 0
-74 -41 0
-74 -53 0
-74 -62 0
-74 -68 0
-74 -71 0
-74 -77 0
-74 -80 0
-74 -89 0
-74 -92 0
-74 -95 0
-74 -101 0
-74 -116 0
-74 -119 0
-77 -8 0
-77 -11 0
-77 -32 0
-77 -35 0
-77 -44 0
-77 -50 0
-77 -53 0
-77 -59 0
-77 -65 0
-77 -74 0
-77 -86 0
-77 -89 0
-77 -95 0
-77 -98 0
-77 -101 0
-77 -104 0
-77 -113 0
-77 -119 0
-80 -5 0
-80 -8 0
-80 -11 0
-80 -20 0
-80 -23 0
-80 -26 0
-80 -29 0
-80 -38 0
-80 -44 0
-80 -50 0
-80 -62 0
-80 -68 0
-80 -71 0
-80 -74 0
-80 -86 0
-80 -89 0
-80 -98 0
-80 -101 0
-80 -110 0
-80 -113 0
-83 -5 0
-83 -11 0
-83 -14 0
-83 -20 0
-83 -29 0
-83 -35 0
-83 -44 0
-83 -50 0
-83 -53 0
-83 -56 0
-83 -59 0
-83 -68 0
-83 -86 0
-83 -89 0
-83 -92 0
-83 -95 0
-83 -98 0
-83 -101 0
-83 -104 0
-83 -110 0
-83 -113 0
-83 -119 0
-86 -2 0
-86 -5 0
-86 -8 0
-86 -11 0
-86 -17 0
-86 -20 0
-86 -23 0
-86 -26 0
-86 -38 0
-86 -41 0
-86 -44 0
-86 -47 0
-86 -53 0
-86 -59 0
-86 -62 0
-86 -77 0
-86 -80 0
-86 -83 0
-89 -2 0
-89 -8 0
-89 -14 0
-89 -17 0
-89 -23 0
-89 -29 0
-89 -35 0
-89 -41 0
-89 -44 0
-89 -50 0
-89 -56 0
-89 -59 0
-89 -65 0
-89 -68 0
-89 -74 0
-89 -77 0
-89 -80 0
-89 -83 0
-89 -95 0
-89 -98 0
-89 -107 0
-89 -110 0
-89 -113 0
-89 -116 0
-92 -5 0
-92 -11 0
-92 -14 0
-92 -23 0
-92 -29 0
-92 -41 0
-92 -44 0
-92 -56 0
-92 -62 0
-92 -74 0
-92 -83 0
-92 -98 0
-92 -107 0
-92 -110 0
-92 -116 0
-92 -119 0
-95 -2 0
-95 -5 0
-95 -8 0
-95 -20 0
-95 -23 0
-95 -26 0
-95 -35 0
-95 -41 0
-95 -47 0
-95 -53 0
-95 -59 0
-95 -62 0
-95 -65 0
-95 -71 0
-95 -74 0
-95 -77 0
-95 -83 0
-95 -89 0
-95 -98 0
-95 -116 0
-98 -8 0
-98 -14 0
-98 -20 0
-98 -23 0
-98 -32 0
-98 -35 0
-98 -38 0
-98 -59 0
-98 -62 0
-98 -68 0
-98 -77 0
-98 -80 0
-98 -83 0
-98 -89 0
-98 -92 0
-98 -95 0
-98 -101 0
-98 -104 0
-98 -110 0
-101 -5 0
-101 -8 0
-101 -29 0
-101 -32 0
-101 -35 0
-101 -38 0
-101 -41 0
-101 -47 0
-101 -50 0
-101 -56 0
-101 -62 0
-101 -65 0
-101 -68 0
-101 -71 0
-101 -74 0
-101 -77 0
-101 -80 0
-101 -83 0
-101 -98 0
-101 -104 0
-101 -110 0
-101 -116 0
-104 -2 0
-104 -5 0
-104 -8 0
-104 -14 0
-104 -17 0
-104 -20 0
-104 -23 0
-104 -26 0
-104 -29 0
-104 -32 0
-104 -35 0
-104 -38 0
-104 -47 0
-104 -50 0
-104 -56 0
-104 -62 0
-104 -68 0
-104 -77 0
-104 -83 0
-104 -98 0
-104 -101 0
-107 -2 0
-107 -5 0
-107 -11 0
-107 -17 0
-107 -23 0
-107 -29 0
-107 -32 0
-107 -41 0
-107 -47 0
-107 -50 0
-107 -56 0
-107 -59 0
-107 -62 0
-107 -65 0
-107 -89 0
-107 -92 0
-107 -113 0
-107 -116 0
-107 -119 0
-110 -5 0
-110 -11 0
-110 -20 0
-110 -26 0
-110 -32 0
-110 -38 0
-110 -44 0
-110 -50 0
-110 -53 0
-110 -56 0
-110 -62 0
-110 -68 0
-110 -71 0
-110 -80 0
-110 -83 0
-110 -89 0
-110 -92 0
-110 -98 0
-110 -101 0
-110 -113 0
-110 -119 0
-113 -20 0
-113 -26 0
-113 -29 0
-113 -32 0
-113 -35 0
-113 -38 0
-113 -41 0
-113 -47 0
-113 -50 0
-113 -53 0
-113 -56 0
-113 -59 0
-113 -62 0
-113 -65 0
-113 -77 0
-113 -80 0
-113 -83 0
-113 -89 0
-113 -107 0
-113 -110 0
-116 -2 0
-116 -5 0
-116 -8 0
-116 -17 0
-116 -20 0
-116 -41 0
-116 -47 0
-116 -50 0
-116 -53 0
-116 -62 0
-116 -65 0
-116 -68 0
-116 -71 0
-116 -74 0
-116 -89 0
-116 -92 0
-116 -95 0
-116 -101 0
-116 -107 0
-119 -2 0
-119 -14 0
-119 -23 0
-119 -32 0
-119 -38 0
-119 -47 0
-119 -50 0
-119 -53 0
-119 -59 0
-119 -62 0
-119 -65 0
-119 -74 0
-119 -77 0
-119 -83 0
-119 -92 0
-119 -107 0
-119 -110 0
-3 -12 0
-3 -15 0
-3 -21 0
-3 -24 0
-3 -30 0
-3 -33 0
-3 -42 0
-3 -45 0
-3 -54 0
-3 -57 0
-3 -66 0
-3 -69 0
-3 -72 0
-3 -75 0
-3 -87 0
-3 -90 0
-3 -96 0
-3 -105 0
-3 -108 0
-3 -117 0
-3 -120 0
-6 -15 0
-6 -18 0
-6 -24 0
-6 -30 0
-6 -33 0
-6 -36 0
-6 -42 0
-6 -48 0
-6 -51 0
-6 -60 0
-6 -66 0
-6 -72 0
-6 -81 0
-6 -84 0
-6 -87 0
-6 -93 0
-6 -96 0
-6 -102 0
-6 -105 0
-6 -108 0
-6 -111 0
-6 -117 0
-9 -12 0
-9 -15 0
-9 -24 0
-9 -30 0
-9 -33 0
-9 -39 0
-9 -42 0
-9 -45 0
-9 -51 0
-9 -54 0
-9 -63 0
-9 -69 0
-9 -72 0
-9 -75 0
-9 -78 0
-9 -81 0
-9 -87 0
-9 -90 0
-9 -96 0
-9 -99 0
-9 -102 0
-9 -105 0
-9 -117 0
-12 -3 0
-12 -9 0
-12 -15 0
-12 -21 0
-12 -24 0
-12 -33 0
-12 -36 0
-12 -39 0
-12 -42 0
-12 -45 0
-12 -48 0
-12 -51 0
-12 -57 0
-12 -60 0
-12 -69 0
-12 -72 0
-12 -78 0
-12 -81 0
-12 -84 0
-12 -87 0
-12 -93 0
-12 -108 0
-12 -111 0
-15 -3 0
-15 -6 0
-15 -9 0
-15 -12 0
-15 -21 0
-15 -24 0
-15 -30 0
-15 -36 0
-15 -39 0
-15 -42 0
-15 -45 0
-15 -54 0
-15 -57 0
-15 -60 0
-15 -69 0
-15 -72 0
-15 -84 0
-15 -90 0
-15 -93 0
-15 -99 0
-15 -105 0
-15 -120 0
-18 -6 0
-18 -24 0
-18 -27 0
-18 -30 0
-18 -33 0
-18 -39 0
-18 -42 0
-18 -48 0
-18 -54 0
-18 -60 0
-18 -66 0
-18 -69 0
-18 -87 0
-18 -90 0
-18 -105 0
-18 -108 0
-18 -117 0
-21 -3 0
-21 -12 0
-21 -15 0
-21 -27 0
-21 -33 0
-21 -36 0
-21 -42 0
-21 -48 0
-21 -63 0
-21 -66 0
-21 -69 0
-21 -81 0
-21 -84 0
-21 -87 0
-21 -96 0
-21 -99 0
-21 -105 0
-21 -111 0
-21 -114 0
-21 -117 0
-24 -3 0
-24 -6 0
-24 -9 0
-24 -12 0
-24 -15 0
-24 -18 0
-24 -30 0
-24 -33 0
-24 -39 0
-24 -45 0
-24 -48 0
-24 -51 0
-24 -57 0
-24 -63 0
-24 -69 0
-24 -75 0
-24 -81 0
-24 -87 0
-24 -90 0
-24 -93 0
-24 -96 0
-24 -99 0
-24 -105 0
-24 -108 0
-24 -120 0
-27 -18 0
-27 -21 0
-27 -30 0
-27 -33 0
-27 -45 0
-27 -48 0
-27 -54 0
-27 -57 0
-27 -60 0
-27 -66 0
-27 -69 0
-27 -75 0
-27 -81 0
-27 -87 0
-27 -96 0
-27 -105 0
-27 -111 0
-27 -114 0
-30 -3 0
-30 -6 0
-30 -9 0
-30 -15 0
-30 -18 0
-30 -24 0
-30 -27 0
-30 -39 0
-30 -42 0
-30 -45 0
-30 -48 0
-30 -51 0
-30 -54 0
-30 -57 0
-30 -75 0
-30 -81 0
-30 -84 0
-30 -90 0
-30 -93 0
-30 -102 0
-30 -105 0
-30 -108 0
-30 -114 0
-33 -3 0
-33 -6 0
-33 -9 0
-33 -12 0
-33 -18 0
-33 -21 0
-33 -24 0
-33 -27 0
-33 -39 0
-33 -45 0
-33 -54 0
-33 -57 0
-33 -60 0
-33 -63 0
-33 -69 0
-33 -78 0
-33 -99 0
-33 -102 0
-33 -105 0
-33 -108 0
-33 -111 0
-33 -114 0
-33 -120 0
-36 -6 0
-36 -12 0
-36 -15 0
-36 -21 0
-36 -39 0
-36 -42 0
-36 -48 0
-36 -51 0
-36 -54 0
-36 -60 0
-36 -63 0
-36 -69 0
-36 -75 0
-36 -78 0
-36 -84 0
-36 -90 0
-36 -96 0
-36 -99 0
-36 -102 0
-36 -105 0
-36 -114 0
-39 -9 0
-39 -12 0
-39 -15 0
-39 -18 0
-39 -24 0
-39 -30 0
-39 -33 0
-39 -36 0
-39 -42 0
-39 -45 0
-39 -48 0
-39 -51 0
-39 -57 0
-39 -60 0
-39 -63 0
-39 -66 0
-39 -69 0
-39 -72 0
-39 -75 0
-39 -81 0
-39 -87 0
-39 -99 0
-39 -102 0
-39 -105 0
-39 -111 0
-39 -114 0
-39 -120 0
-42 -3 0
-42 -6 0
-42 -9 0
-42 -12 0
-42 -15 0
-42 -18 0
-42 -21 0
-42 -30 0
-42 -36 0
-42 -39 0
-42 -48 0
-42 -51 0
-42 -66 0
-42 -69 0
-42 -72 0
-42 -75 0
-42 -87 0
-42 -90 0
-42 -93 0
-42 -96 0
-42 -102 0
-42 -108 0
-42 -114 0
-42 -117 0
-45 -3 0
-45 -9 0
-45 -12 0
-45 -15 0
-45 -24 0
-45 -27 0
-45 -30 0
-45 -33 0
-45 -39 0
-45 -51 0
-45 -54 0
-45 -57 0
-45 -60 0
-45 -69 0
-45 -72 0
-45 -78 0
-45 -81 0
-45 -84 0
-45 -87 0
-45 -90 0
-45 -93 0
-45 -111 0
-48 -6 0
-48 -12 0
-48 -18 0
-48 -21 0
-48 -24 0
-48 -27 0
-48 -30 0
-48 -36 0
-48 -39 0
-48 -42 0
-48 -51 0
-48 -54 0
-48 -57 0
-48 -63 0
-48 -87 0
-48 -96 0
-48 -102 0
-48 -105 0
-48 -108 0
-48 -114 0
-48 -117 0
-48 -120 0
-51 -6 0
-51 -9 0
-51 -12 0
-51 -24 0
-51 -30 0
-51 -36 0
-51 -39 0
-51 -42 0
-51 -45 0
-51 -48 0
-51 -57 0
-51 -60 0
-51 -72 0
-51 -78 0
-51 -81 0
-51 -84 0
-51 -90 0
-51 -102 0
-51 -105 0
-51 -108 0
-51 -111 0
-51 -114 0
-51 -117 0
-51 -120 0
-54 -3 0
-54 -9 0
-54 -15 0
-54 -18 0
-54 -27 0
-54 -30 0
-54 -33 0
-54 -36 0
-54 -45 0
-54 -48 0
-54 -57 0
-54 -69 0
-54 -72 0
-54 -75 0
-54 -78 0
-54 -84 0
-54 -87 0
-54 -96 0
-54 -111 0
-54 -114 0
-54 -117 0
-54 -120 0
-57 -3 0
-57 -12 0
-57 -15 0
-57 -24 0
-57 -27 0
-57 -30 0
-57 -33 0
-57 -39 0
-57 -45 0
-57 -48 0
-57 -51 0
-57 -54 0
-57 -63 0
-57 -66 0
-57 -69 0
-57 -72 0
-57 -84 0
-57 -90 0
-57 -93 0
-57 -102 0
-57 -105 0
-57 -108 0
-57 -111 0
-57 -114 0
-60 -6 0
-60 -12 0
-60 -15 0
-60 -18 0
-60 -27 0
-60 -33 0
-60 -36 0
-60 -39 0
-60 -45 0
-60 -51 0
-60 -72 0
-60 -78 0
-60 -84 0
-60 -87 0
-60 -90 0
-60 -96 0
-60 -99 0
-60 -108 0
-60 -114 0
-60 -120 0
-63 -9 0
-63 -21 0
-63 -24 0
-63 -33 0
-63 -36 0
-63 -39 0
-63 -48 0
-63 -57 0
-63 -72 0
-63 -75 0
-63 -81 0
-63 -87 0
-63 -93 0
-63 -96 0
-63 -99 0
-63 -102 0
-63 -105 0
-63 -108 0
-63 -111 0
-63 -114 0
-63 -117 0
-63 -120 0
-66 -3 0
-66 -6 0
-66 -18 0
-66 -21 0
-66 -27 0
-66 -39 0
-66 -42 0
-66 -57 0
-66 -69 0
-66 -72 0
-66 -78 0
-66 -90 0
-66 -96 0
-66 -102 0
-66 -108 0
-66 -114 0
-66 -117 0
-66 -120 0
-69 -3 0
-69 -9 0
-69 -12 0
-69 -15 0
-69 -18 0
-69 -21 0
-69 -24 0
-69 -27 0
-69 -33 0
-69 -36 0
-69 -39 0
-69 -42 0
-69 -45 0
-69 -54 0
-69 -57 0
-69 -66 0
-69 -72 0
-69 -75 0
-69 -81 0
-69 -84 0
-69 -90 0
-69 -99 0
-69 -102 0
-69 -105 0
-69 -111 0
-69 -117 0
-72 -3 0
-72 -6 0
-72 -9 0
-72 -12 0
-72 -15 0
-72 -39 0
-72 -42 0
-72 -45 0
-72 -51 0
-72 -54 0
-72 -57 0
-72 -60 0
-72 -63 0
-72 -66 0
-72 -69 0
-72 -75 0
-72 -81 0
-72 -96 0
-72 -102 0
-72 -111 0
-72 -117 0
-75 -3 0
-75 -9 0
-75 -24 0
-75 -27 0
-75 -30 0
-75 -36 0
-75 -39 0
-75 -42 0
-75 -54 0
-75 -63 0
-75 -69 0
-75 -72 0
-75 -78 0
-75 -81 0
-75 -90 0
-75 -93 0
-75 -96 0
-75 -102 0
-75 -117 0
-75 -120 0
-78 -9 0
-78 -12 0
-78 -33 0
-78 -36 0
-78 -45 0
-78 -51 0
-78 -54 0
-78 -60 0
-78 -66 0
-78 -75 0
-78 -87 0
-78 -90 0
-78 -96 0
-78 -99 0
-78 -102 0
-78 -105 0
-78 -114 0
-78 -120 0
-81 -6 0
-81 -9 0
-81 -12 0
-81 -21 0
-81 -24 0
-81 -27 0
-81 -30 0
-81 -39 0
-81 -45 0
-81 -51 0
-81 -63 0
-81 -69 0
-81 -72 0
-81 -75 0
-81 -87 0
-81 -90 0
-81 -99 0
-81 -102 0
-81 -111 0
-81 -114 0
-84 -6 0
-84 -12 0
-84 -15 0
-84 -21 0
-84 -30 0
-84 -36 0
-84 -45 0
-84 -51 0
-84 -54 0
-84 -57 0
-84 -60 0
-84 -69 0
-84 -87 0
-84 -90 0
-84 -93 0
-84 -96 0
-84 -99 0
-84 -102 0
-84 -105 0
-84 -111 0
-84 -114 0
-84 -120 0
-87 -3 0
-87 -6 0
-87 -9 0
-87 -12 0
-87 -18 0
-87 -21 0
-87 -24 0
-87 -27 0
-87 -39 0
-87 -42 0
-87 -45 0
-87 -48 0
-87 -54 0
-87 -60 0
-87 -63 0
-87 -78 0
-87 -81 0
-87 -84 0
-90 -3 0
-90 -9 0
-90 -15 0
-90 -18 0
-90 -24 0
-90 -30 0
-90 -36 0
-90 -42 0
-90 -45 0
-90 -51 0
-90 -57 0
-90 -60 0
-90 -66 0
-90 -69 0
-90 -75 0
-90 -78 0
-90 -81 0
-90 -84 0
-90 -96 0
-90 -99 0
-90 -108 0
-90 -111 0
-90 -114 0
-90 -117 0
-93 -6 0
-93 -12 0
-93 -15 0
-93 -24 0
-93 -30 0
-93 -42 0
-93 -45 0
-93 -57 0
-93 -63 0
-93 -75 0
-93 -84 0
-93 -99 0
-93 -108 0
-93 -111 0
-93 -117 0
-93 -120 0
-96 -3 0
-96 -6 0
-96 -9 0
-96 -21 0
-96 -24 0
-96 -27 0
-96 -36 0
-96 -42 0
-96 -48 0
-96 -54 0
-96 -60 0
-96 -63 0
-96 -66 0
-96 -72 0
-96 -75 0
-96 -78 0
-96 -84 0
-96 -90 0
-96 -99 0
-96 -117 0
-99 -9 0
-99 -15 0
-99 -21 0
-99 -24 0
-99 -33 0
-99 -36 0
-99 -39 0
-99 -60 0
-99 -63 0
-99 -69 0
-99 -78 0
-99 -81 0
-99 -84 0
-99 -90 0
-99 -93 0
-99 -96 0
-99 -102 0
-99 -105 0
-99 -111 0
-102 -6 0
-102 -9 0
-102 -30 0
-102 -33 0
-102 -36 0
-102 -39 0
-102 -42 0
-102 -48 0
-102 -51 0
-102 -57 0
-102 -63 0
-102 -66 0
-102 -69 0
-102 -72 0
-102 -75 0
-102 -78 0
-102 -81 0
-102 -84 0
-102 -99 0
-102 -105 0
-102 -111 0
-102 -117 0
-105 -3 0
-105 -6 0
-105 -9 0
-105 -15 0
-105 -18 0
-105 -21 0
-105 -24 0
-105 -27 0
-105 -30 0
-105 -33 0
-105 -36 0
-105 -39 0
-105 -48 0
-105 -51 0
-105 -57 0
-105 -63 0
-105 -69 0
-105 -78 0
-105 -84 0
-105 -99 0
-105 -102 0
-108 -3 0
-108 -6 0
-108 -12 0
-108 -18 0
-108 -24 0
-108 -30 0
-108 -33 0
-108 -42 0
-108 -48 0
-108 -51 0
-108 -57 0
-108 -60 0
-108 -63 0
-108 -66 0
-108 -90 0
-108 -93 0
-108 -114 0
-108 -117 0
-108 -120 0
-111 -6 0
-111 -12 0
-111 -21 0
-111 -27 0
-111 -33 0
-111 -39 0
-111 -45 0
-111 -51 0
-111 -54 0
-111 -57 0
-111 -63 0
-111 -69 0
-111 -72 0
-111 -81 0
-111 -84 0
-111 -90 0
-111 -93 0
-111 -99 0
-111 -102 0
-111 -114 0
-111 -120 0
-114 -21 0
-114 -27 0
-114 -30 0
-114 -33 0
-114 -36 0
-114 -39 0
-114 -42 0
-114 -48 0
-114 -51 0
-114 -54 0
-114 -57 0
-114 -60 0
-114 -63 0
-114 -66 0
-114 -78 0
-114 -81 0
-114 -84 0
-114 -90 0
-114 -108 0
-114 -111 0
-117 -3 0
-117 -6 0
-117 -9 0
-117 -18 0
-117 -21 0
-117 -42 0
-117 -48 0
-117 -51 0
-117 -54 0
-117 -63 0
-117 -66 0
-117 -69 0
-117 -72 0
-117 -75 0
-117 -90 0
-117 -93 0
-117 -96 0
-117 -102 0
-117 -108 0
-120 -3 0
-120 -15 0
-120 -24 0
-120 -33 0
-120 -39 0
-120 -48 0
-120 -51 0
-120 -54 0
-120 -60 0
-120 -63 0
-120 -66 0
-120 -75 0
-120 -78 0
-120 -84 0
-120 -93 0
-120 -108 0
-120 -111 0
